336 337 338 339 333 332 331 330 340 341 344 343 342 366 329 328 325 326 327 370 369 368 367 365 364 346 345 347 348 349 350 351 352 353 354 355 357 358 359 361 362 363 360 401 402 356 412 411 417 413 414 415 416 419 420 421 422 418 410 384 383 385 409 408 407 406 405 404 403 400 399 398 397 394 393 391 392 390 389 388 387 386 382 425 424 423 426 427 428 429 431 430 432 433 434 435 436 437 438 454 439 440 453 452 461 462 463 464 465 466 467 468 469 470 496 497 518 519 498 499 500 501 502 503 504 505 308 309 310 313 312 311 451 450 441 449 448 447 446 442 443 444 445 381 380 379 378 377 376 375 395 396 371 372 373 374 315 314 316 322 323 324 321 320 319 317 318 305 306 304 307 303 301 302 508 507 506 516 515 514 517 520 521 522 523 526 527 512 513 509 510 511 528 529 530 531 532 533 534 488 489 490 491 492 493 525 524 494 495 471 472 473 474 570 569 568 20 19 18 17 571 460 459 458 457 456 455 2 3 4 1 0 5 573 572 6 7 8 9 10 11 16 15 14 13 12 23 22 21 24 25 26 27 28 29 31 30 32 33 34 35 36 37 38 40 41 39 42 43 49 48 47 44 45 46 555 91 92 93 90 89 88 87 86 85 84 51 50 52 54 53 55 56 83 82 57 58 81 59 60 61 63 62 79 80 78 77 76 64 75 74 73 72 71 65 66 67 68 70 69 138 137 139 140 136 135 134 133 158 145 146 144 143 142 141 151 150 149 152 148 147 153 157 159 156 155 154 165 164 166 167 163 162 160 161 112 114 113 131 132 130 129 128 127 126 125 124 123 122 121 120 119 118 94 97 95 96 98 99 100 102 101 551 552 553 554 556 557 558 559 550 548 549 560 561 562 563 564 565 566 567 475 476 477 478 479 480 481 482 483 484 485 486 487 535 536 537 539 538 540 188 187 178 177 176 174 173 108 109 107 542 541 543 544 545 546 547 103 104 105 106 117 116 115 110 111 172 175 171 170 168 169 180 181 179 182 186 185 183 184 194 195 196 197 198 199 200 201 202 204 203 208 207 206 205 209 210 211 212 213 214 215 216 217 223 224 222 221 220 218 219 193 192 191 190 226 225 189 227 228 229 230 231 233 232 234 235 236 237 240 239 238 246 247 245 244 243 242 241 248 249 250 251 252 254 253 255 256 257 300 258 259 260 261 262 263 264 266 265 299 298 297 267 271 272 269 268 270 296 295 294 293 291 292 273 274 275 290 289 288 276 277 278 279 282 281 280 287 286 285 284 283 334 335